c solution = True
p edge 1000 999
e 39 1 1
e 38 39 1
e 863 39 1
e 37 38 1
e 729 38 1
e 832 729 1
e 36 37 1
e 35 36 1
e 34 35 1
e 33 34 1
e 428 34 1
e 735 34 1
e 854 34 1
e 734 735 1
e 733 734 1
e 427 428 1
e 637 427 1
e 636 637 1
e 674 637 1
e 851 637 1
e 976 637 1
e 673 674 1
e 32 33 1
e 31 32 1
e 259 32 1
e 258 259 1
e 598 259 1
e 597 598 1
e 910 597 1
e 257 258 1
e 438 258 1
e 930 438 1
e 256 257 1
e 255 256 1
e 905 256 1
e 254 255 1
e 460 255 1
e 867 460 1
e 253 254 1
e 252 253 1
e 251 252 1
e 871 252 1
e 822 251 1
e 842 251 1
e 841 842 1
e 968 841 1
e 850 822 1
e 932 822 1
e 849 850 1
e 918 849 1
e 30 31 1
e 233 31 1
e 565 31 1
e 644 31 1
e 29 30 1
e 98 30 1
e 924 30 1
e 923 924 1
e 986 924 1
e 97 98 1
e 151 98 1
e 584 98 1
e 594 584 1
e 150 151 1
e 628 151 1
e 149 150 1
e 148 149 1
e 913 148 1
e 940 913 1
e 994 913 1
e 28 29 1
e 925 29 1
e 27 28 1
e 223 28 1
e 479 28 1
e 222 223 1
e 547 223 1
e 833 547 1
e 883 833 1
e 221 222 1
e 220 221 1
e 452 220 1
e 872 220 1
e 951 220 1
e 451 452 1
e 740 452 1
e 773 451 1
e 26 27 1
e 491 27 1
e 955 27 1
e 490 491 1
e 511 490 1
e 510 511 1
e 25 26 1
e 324 26 1
e 323 324 1
e 978 324 1
e 24 25 1
e 23 24 1
e 22 23 1
e 21 22 1
e 95 22 1
e 356 22 1
e 355 356 1
e 354 355 1
e 485 355 1
e 353 354 1
e 382 354 1
e 381 382 1
e 799 382 1
e 847 382 1
e 352 353 1
e 351 352 1
e 702 352 1
e 898 352 1
e 94 95 1
e 798 95 1
e 93 94 1
e 701 94 1
e 700 701 1
e 92 93 1
e 20 21 1
e 19 20 1
e 161 20 1
e 563 20 1
e 562 563 1
e 561 562 1
e 560 561 1
e 681 561 1
e 952 681 1
e 160 161 1
e 903 161 1
e 902 903 1
e 159 160 1
e 499 160 1
e 158 159 1
e 418 159 1
e 536 159 1
e 417 418 1
e 583 418 1
e 654 417 1
e 828 417 1
e 821 654 1
e 885 821 1
e 157 158 1
e 959 158 1
e 289 157 1
e 894 157 1
e 18 19 1
e 17 18 1
e 889 18 1
e 888 889 1
e 16 17 1
e 752 17 1
e 995 17 1
e 15 16 1
e 14 15 1
e 551 15 1
e 589 15 1
e 13 14 1
e 12 13 1
e 786 13 1
e 941 13 1
e 989 941 1
e 11 12 1
e 178 12 1
e 177 178 1
e 622 178 1
e 621 622 1
e 713 622 1
e 712 713 1
e 997 713 1
e 711 712 1
e 996 711 1
e 620 621 1
e 652 621 1
e 651 652 1
e 866 652 1
e 619 620 1
e 823 620 1
e 840 620 1
e 839 840 1
e 660 619 1
e 704 660 1
e 890 704 1
e 176 177 1
e 175 176 1
e 404 176 1
e 415 176 1
e 431 176 1
e 430 431 1
e 429 430 1
e 927 430 1
e 777 429 1
e 414 415 1
e 413 414 1
e 412 413 1
e 411 412 1
e 796 412 1
e 10 11 1
e 535 11 1
e 631 11 1
e 630 631 1
e 629 630 1
e 922 630 1
e 945 630 1
e 534 535 1
e 834 535 1
e 957 535 1
e 9 10 1
e 806 10 1
e 887 806 1
e 8 9 1
e 7 8 1
e 632 8 1
e 6 7 1
e 402 7 1
e 953 7 1
e 912 402 1
e 5 6 1
e 4 5 1
e 379 5 1
e 416 379 1
e 543 379 1
e 459 416 1
e 527 416 1
e 458 459 1
e 745 459 1
e 914 459 1
e 846 745 1
e 3 4 1
e 921 4 1
e 2 3 1
e 78 3 1
e 707 3 1
e 706 707 1
e 77 78 1
e 276 78 1
e 275 276 1
e 664 275 1
e 76 77 1
e 856 77 1
e 75 76 1
e 74 75 1
e 73 74 1
e 399 74 1
e 593 74 1
e 72 73 1
e 705 73 1
e 71 72 1
e 305 72 1
e 304 305 1
e 550 305 1
e 303 304 1
e 643 304 1
e 642 643 1
e 641 642 1
e 640 641 1
e 639 640 1
e 948 640 1
e 302 303 1
e 730 303 1
e 301 302 1
e 434 301 1
e 882 301 1
e 568 434 1
e 892 434 1
e 949 568 1
e 70 71 1
e 765 71 1
e 69 70 1
e 572 70 1
e 68 69 1
e 67 68 1
e 864 68 1
e 66 67 1
e 65 66 1
e 292 66 1
e 525 66 1
e 524 525 1
e 982 525 1
e 998 524 1
e 291 292 1
e 467 291 1
e 683 291 1
e 466 467 1
e 916 467 1
e 929 467 1
e 484 466 1
e 483 484 1
e 482 483 1
e 481 482 1
e 732 482 1
e 480 481 1
e 687 481 1
e 64 65 1
e 928 65 1
e 63 64 1
e 174 64 1
e 731 64 1
e 173 174 1
e 172 173 1
e 171 172 1
e 170 171 1
e 330 171 1
e 169 170 1
e 838 170 1
e 939 170 1
e 168 169 1
e 384 169 1
e 465 169 1
e 649 169 1
e 648 649 1
e 464 465 1
e 533 465 1
e 670 465 1
e 463 464 1
e 848 464 1
e 462 463 1
e 461 462 1
e 669 462 1
e 836 462 1
e 668 669 1
e 689 669 1
e 383 384 1
e 167 168 1
e 585 168 1
e 166 167 1
e 165 166 1
e 164 165 1
e 273 165 1
e 360 165 1
e 549 165 1
e 603 165 1
e 760 603 1
e 911 603 1
e 956 760 1
e 272 273 1
e 748 272 1
e 931 748 1
e 163 164 1
e 746 164 1
e 162 163 1
e 327 163 1
e 500 163 1
e 979 163 1
e 326 327 1
e 530 327 1
e 991 327 1
e 559 530 1
e 558 559 1
e 692 559 1
e 881 559 1
e 958 881 1
e 691 692 1
e 557 558 1
e 817 558 1
e 325 326 1
e 473 326 1
e 569 162 1
e 688 162 1
e 62 63 1
e 721 63 1
e 756 63 1
e 781 756 1
e 827 756 1
e 61 62 1
e 725 62 1
e 60 61 1
e 59 60 1
e 58 59 1
e 498 59 1
e 859 498 1
e 57 58 1
e 56 57 1
e 184 57 1
e 55 56 1
e 522 56 1
e 521 522 1
e 520 521 1
e 54 55 1
e 53 54 1
e 426 54 1
e 539 54 1
e 425 426 1
e 424 425 1
e 423 424 1
e 437 424 1
e 963 424 1
e 436 437 1
e 435 436 1
e 901 423 1
e 52 53 1
e 387 53 1
e 386 387 1
e 727 386 1
e 51 52 1
e 279 52 1
e 50 51 1
e 49 50 1
e 115 50 1
e 114 115 1
e 113 114 1
e 112 113 1
e 111 112 1
e 526 112 1
e 110 111 1
e 394 111 1
e 393 394 1
e 392 393 1
e 647 393 1
e 759 393 1
e 993 393 1
e 992 993 1
e 962 647 1
e 391 392 1
e 390 391 1
e 389 390 1
e 388 389 1
e 595 389 1
e 873 595 1
e 109 110 1
e 108 109 1
e 343 109 1
e 784 109 1
e 342 343 1
e 107 108 1
e 675 108 1
e 879 108 1
e 106 107 1
e 131 107 1
e 274 107 1
e 542 107 1
e 586 107 1
e 709 107 1
e 816 586 1
e 541 542 1
e 869 542 1
e 868 869 1
e 540 541 1
e 717 540 1
e 130 131 1
e 726 131 1
e 129 130 1
e 207 130 1
e 206 207 1
e 219 207 1
e 497 207 1
e 496 497 1
e 714 497 1
e 495 496 1
e 494 495 1
e 493 494 1
e 810 494 1
e 492 493 1
e 218 219 1
e 373 219 1
e 845 219 1
e 372 373 1
e 969 372 1
e 217 218 1
e 216 217 1
e 623 217 1
e 205 206 1
e 322 206 1
e 472 206 1
e 471 472 1
e 470 471 1
e 835 471 1
e 919 835 1
e 523 470 1
e 900 523 1
e 204 205 1
e 203 204 1
e 445 204 1
e 618 204 1
e 754 204 1
e 1000 754 1
e 517 445 1
e 516 517 1
e 553 517 1
e 874 517 1
e 852 553 1
e 515 516 1
e 514 515 1
e 626 515 1
e 513 514 1
e 202 203 1
e 633 203 1
e 990 203 1
e 909 633 1
e 908 909 1
e 907 908 1
e 201 202 1
e 200 201 1
e 944 201 1
e 975 944 1
e 199 200 1
e 588 200 1
e 824 200 1
e 587 588 1
e 601 587 1
e 600 601 1
e 663 601 1
e 671 601 1
e 829 601 1
e 599 600 1
e 447 199 1
e 446 447 1
e 638 447 1
e 128 129 1
e 934 129 1
e 127 128 1
e 556 128 1
e 971 128 1
e 970 971 1
e 555 556 1
e 554 555 1
e 999 554 1
e 126 127 1
e 195 127 1
e 194 195 1
e 297 195 1
e 296 297 1
e 295 296 1
e 294 295 1
e 293 294 1
e 506 294 1
e 193 194 1
e 192 193 1
e 475 193 1
e 474 475 1
e 807 475 1
e 858 475 1
e 191 192 1
e 307 192 1
e 306 307 1
e 456 307 1
e 455 456 1
e 454 455 1
e 987 455 1
e 453 454 1
e 190 191 1
e 280 191 1
e 189 190 1
e 813 190 1
e 812 813 1
e 826 813 1
e 857 826 1
e 188 189 1
e 686 189 1
e 685 686 1
e 920 686 1
e 187 188 1
e 891 188 1
e 186 187 1
e 528 187 1
e 693 187 1
e 185 186 1
e 350 186 1
e 215 185 1
e 538 185 1
e 214 215 1
e 213 214 1
e 212 213 1
e 790 213 1
e 797 790 1
e 211 212 1
e 210 211 1
e 819 211 1
e 209 210 1
e 290 210 1
e 770 210 1
e 769 290 1
e 208 209 1
e 915 208 1
e 967 208 1
e 125 126 1
e 349 126 1
e 906 126 1
e 348 349 1
e 347 348 1
e 450 348 1
e 449 450 1
e 346 347 1
e 345 346 1
e 344 345 1
e 737 344 1
e 124 125 1
e 260 125 1
e 362 260 1
e 361 362 1
e 123 124 1
e 122 123 1
e 227 123 1
e 226 227 1
e 225 226 1
e 224 225 1
e 720 224 1
e 121 122 1
e 313 122 1
e 312 313 1
e 703 313 1
e 715 703 1
e 311 312 1
e 696 312 1
e 755 311 1
e 120 121 1
e 699 121 1
e 698 699 1
e 119 120 1
e 401 120 1
e 743 120 1
e 946 120 1
e 742 743 1
e 818 743 1
e 741 742 1
e 400 401 1
e 519 401 1
e 697 401 1
e 960 401 1
e 118 119 1
e 136 119 1
e 580 119 1
e 579 580 1
e 895 580 1
e 964 895 1
e 135 136 1
e 679 136 1
e 678 679 1
e 134 135 1
e 133 134 1
e 359 134 1
e 591 134 1
e 774 134 1
e 966 591 1
e 358 359 1
e 357 358 1
e 398 358 1
e 659 357 1
e 658 659 1
e 936 659 1
e 657 658 1
e 884 658 1
e 132 133 1
e 250 132 1
e 249 250 1
e 938 250 1
e 248 249 1
e 408 249 1
e 407 408 1
e 736 408 1
e 406 407 1
e 405 406 1
e 983 405 1
e 247 248 1
e 783 248 1
e 782 783 1
e 246 247 1
e 578 247 1
e 605 247 1
e 577 578 1
e 576 577 1
e 575 576 1
e 574 575 1
e 573 574 1
e 680 573 1
e 245 246 1
e 117 118 1
e 244 118 1
e 243 244 1
e 544 244 1
e 242 243 1
e 785 243 1
e 241 242 1
e 419 242 1
e 719 419 1
e 886 419 1
e 718 719 1
e 240 241 1
e 385 241 1
e 728 241 1
e 861 241 1
e 947 861 1
e 875 728 1
e 487 240 1
e 486 487 1
e 116 117 1
e 546 116 1
e 545 546 1
e 747 546 1
e 105 106 1
e 104 105 1
e 509 105 1
e 772 105 1
e 771 772 1
e 508 509 1
e 507 508 1
e 103 104 1
e 102 103 1
e 101 102 1
e 571 102 1
e 653 102 1
e 809 102 1
e 570 571 1
e 582 571 1
e 581 582 1
e 724 581 1
e 723 724 1
e 904 724 1
e 722 723 1
e 985 722 1
e 100 101 1
e 801 101 1
e 820 801 1
e 99 100 1
e 805 100 1
e 804 805 1
e 981 804 1
e 48 49 1
e 47 48 1
e 502 48 1
e 501 502 1
e 564 501 1
e 606 564 1
e 650 606 1
e 46 47 1
e 91 47 1
e 90 91 1
e 844 91 1
e 843 844 1
e 89 90 1
e 236 90 1
e 235 236 1
e 234 235 1
e 88 89 1
e 87 88 1
e 86 87 1
e 321 87 1
e 488 87 1
e 320 321 1
e 319 320 1
e 318 319 1
e 317 318 1
e 444 318 1
e 596 318 1
e 677 596 1
e 684 596 1
e 926 684 1
e 676 677 1
e 768 677 1
e 767 768 1
e 761 676 1
e 443 444 1
e 448 444 1
e 469 444 1
e 468 469 1
e 442 443 1
e 609 443 1
e 716 609 1
e 316 317 1
e 315 316 1
e 661 316 1
e 314 315 1
e 85 86 1
e 84 85 1
e 96 85 1
e 366 85 1
e 608 85 1
e 830 608 1
e 365 366 1
e 364 365 1
e 397 365 1
e 396 397 1
e 616 397 1
e 787 397 1
e 615 616 1
e 614 615 1
e 831 614 1
e 855 614 1
e 961 614 1
e 395 396 1
e 634 395 1
e 363 364 1
e 83 84 1
e 329 84 1
e 635 84 1
e 954 84 1
e 776 635 1
e 778 776 1
e 328 329 1
e 624 328 1
e 646 328 1
e 672 624 1
e 803 624 1
e 82 83 1
e 81 82 1
e 298 82 1
e 374 298 1
e 80 81 1
e 300 81 1
e 299 300 1
e 666 300 1
e 665 666 1
e 865 666 1
e 79 80 1
e 183 80 1
e 791 80 1
e 808 80 1
e 815 80 1
e 814 815 1
e 896 791 1
e 973 896 1
e 182 183 1
e 288 183 1
e 287 288 1
e 410 288 1
e 409 410 1
e 457 410 1
e 795 409 1
e 862 409 1
e 181 182 1
e 180 181 1
e 179 180 1
e 825 180 1
e 537 79 1
e 977 537 1
e 45 46 1
e 232 46 1
e 231 232 1
e 230 231 1
e 229 230 1
e 942 230 1
e 228 229 1
e 44 45 1
e 880 45 1
e 43 44 1
e 341 44 1
e 340 341 1
e 339 340 1
e 682 340 1
e 338 339 1
e 337 338 1
e 751 338 1
e 984 751 1
e 336 337 1
e 335 336 1
e 441 336 1
e 602 335 1
e 42 43 1
e 41 42 1
e 625 42 1
e 40 41 1
e 147 41 1
e 278 41 1
e 489 41 1
e 710 41 1
e 758 278 1
e 146 147 1
e 145 146 1
e 144 145 1
e 277 145 1
e 143 144 1
e 505 144 1
e 504 505 1
e 532 505 1
e 531 532 1
e 604 532 1
e 617 532 1
e 503 504 1
e 142 143 1
e 141 142 1
e 156 142 1
e 286 142 1
e 371 142 1
e 403 142 1
e 370 371 1
e 369 370 1
e 368 369 1
e 478 369 1
e 477 478 1
e 694 478 1
e 476 477 1
e 613 477 1
e 753 477 1
e 612 613 1
e 611 612 1
e 610 611 1
e 667 610 1
e 860 610 1
e 590 476 1
e 367 368 1
e 627 367 1
e 690 367 1
e 988 627 1
e 285 286 1
e 284 285 1
e 378 285 1
e 433 285 1
e 870 285 1
e 965 285 1
e 974 965 1
e 432 433 1
e 750 433 1
e 766 433 1
e 950 433 1
e 749 750 1
e 762 749 1
e 377 378 1
e 376 377 1
e 780 377 1
e 375 376 1
e 283 284 1
e 282 283 1
e 380 283 1
e 281 282 1
e 548 281 1
e 877 281 1
e 155 156 1
e 512 156 1
e 744 512 1
e 154 155 1
e 153 154 1
e 198 154 1
e 310 154 1
e 775 154 1
e 309 310 1
e 308 309 1
e 789 309 1
e 933 309 1
e 788 789 1
e 937 308 1
e 197 198 1
e 196 197 1
e 239 196 1
e 331 196 1
e 980 196 1
e 708 331 1
e 853 708 1
e 238 239 1
e 695 239 1
e 237 238 1
e 271 237 1
e 270 271 1
e 269 270 1
e 529 270 1
e 268 269 1
e 567 269 1
e 566 567 1
e 267 268 1
e 266 267 1
e 265 266 1
e 764 266 1
e 763 764 1
e 878 764 1
e 264 265 1
e 263 264 1
e 262 263 1
e 261 262 1
e 656 262 1
e 802 262 1
e 876 262 1
e 943 802 1
e 655 656 1
e 334 261 1
e 333 334 1
e 422 334 1
e 897 334 1
e 421 422 1
e 552 422 1
e 420 421 1
e 332 333 1
e 607 332 1
e 899 332 1
e 935 899 1
e 779 607 1
e 793 607 1
e 792 793 1
e 811 792 1
e 893 792 1
e 837 811 1
e 152 153 1
e 800 153 1
e 140 141 1
e 139 140 1
e 592 140 1
e 662 140 1
e 138 139 1
e 518 139 1
e 137 138 1
e 440 137 1
e 645 137 1
e 739 645 1
e 738 739 1
e 439 440 1
e 794 440 1
e 917 440 1
e 972 917 1
e 757 439 1
